&control
   calculation = 'relax'
   restart_mode='from_scratch'
   prefix='SF6-vdw-df2'
   pseudo_dir='/deac/thonhauserGrp/chakrad/calculations/atomandmolecule-qe6.2.1-i2012-C6modif/all_pbe_UPF_v1.5/'
   outdir='.'
   verbosity='high'
   forc_conv_thr=1.0D-4
   nstep=100
/

&system
   ibrav           = 1
   celldm(1)       = 40.0
   nat             = 7
   ntyp            = 2
   nspin           = 2
   starting_magnetization(1) = 0.0001
   input_dft       = 'vdw-df2'
   occupations     = smearing
   ecutwfc         = 50.0
   ecutrho         = 500.0
   smearing        = gauss
   degauss         = 0.0001
/

&electrons
    mixing_mode='plain'
    mixing_beta=0.7
    conv_thr =1.0d-6
/
&ions
    ion_dynamics='bfgs'
/
ATOMIC_SPECIES
   S   32.07   s_pbe_v1.4.uspp.F.UPF
   F   18.99   f_pbe_v1.4.uspp.F.UPF
 
ATOMIC_POSITIONS {angstrom}
S        0.000000000   0.000000000   0.000000000
F        1.593808756   0.000000000   0.000000000
F       -1.593808756   0.000000000   0.000000000
F        0.000000000   0.000000000  -1.593808756
F        0.000000000   0.000000000   1.593808756
F        0.000000000  -1.593808756   0.000000000
F        0.000000000   1.593808756   0.000000000
K_POINTS {gamma}
